c SAT Generator for power-law distributed variable frequencies
c -g u -v 20 -c 91 -k 3 -p 2.750000 -b 3.200000 -f /home/schmidt/Devel/ni-kop-sat/data/ensemble/ruf20-91/ruf20-91-984 -u 1 -U 1 -s 4140334217
p cnf 20 91
-2 -14 19 0
4 7 -8 0
6 10 -15 0
4 -9 -16 0
2 -3 -4 0
-2 -13 -19 0
-2 -9 -13 0
-1 -8 15 0
-7 9 12 0
6 -8 10 0
5 -10 15 0
-6 -14 -20 0
-3 5 12 0
5 -11 -13 0
-3 -7 19 0
3 4 -6 0
2 -13 -15 0
2 8 17 0
-3 -16 20 0
3 -7 -18 0
1 -10 16 0
-4 -13 -19 0
-4 7 -17 0
-4 -6 17 0
6 18 -19 0
10 15 -20 0
-4 -6 19 0
6 9 -13 0
-3 -10 -20 0
2 18 20 0
-10 11 14 0
3 15 20 0
8 12 -17 0
13 15 20 0
-6 9 13 0
-2 4 8 0
-10 11 -16 0
4 11 -16 0
-3 9 17 0
-5 -6 -20 0
5 17 -18 0
7 -12 20 0
-2 9 -12 0
7 13 -19 0
10 -11 -19 0
-7 10 -17 0
9 16 -19 0
-4 14 15 0
-4 -12 -20 0
-3 -10 12 0
-11 15 -18 0
-1 5 -15 0
4 13 14 0
1 -4 -17 0
-3 -8 -15 0
1 -11 14 0
-6 12 19 0
2 15 17 0
1 -2 -7 0
-12 -14 -19 0
4 10 13 0
6 12 -18 0
2 10 11 0
-2 -6 -20 0
-3 5 14 0
3 13 15 0
-1 4 18 0
2 6 -15 0
-3 11 -12 0
5 12 -18 0
14 -16 20 0
-12 -13 19 0
8 16 -20 0
-7 13 -18 0
2 -7 -20 0
9 12 -15 0
1 -6 -15 0
4 11 18 0
4 -5 13 0
-4 -16 -19 0
-2 4 -12 0
1 7 -17 0
3 -9 -18 0
-6 -13 18 0
10 18 19 0
-2 -6 9 0
-3 -9 18 0
-12 19 20 0
4 14 -19 0
-2 -6 -14 0
-2 14 15 0
